(set-logic QF_S)
(declare-fun var_0xINPUT_112293 () String)
(assert (and (= (len var_0xINPUT_112293) 0) (= (len var_0xINPUT_112293) 0) (not (= var_0xINPUT_112293 "A9jaaDKZbG"))))
(check-sat var_0xINPUT_112293)